c Random generated cnf formula, satisfiable: true
p cnf 10 50
-1 -4 -5 0
7 10 8 0
5 -6 -8 0
3 -6 7 0
2 -10 -5 0
8 -6 7 0
-1 10 -7 0
1 7 -10 0
-10 2 -3 0
-2 -9 -3 0
-4 9 3 0
-6 5 -4 0
-3 1 -10 0
5 -8 7 0
-10 7 -1 0
-6 -7 1 0
-4 3 -2 0
2 -10 4 0
9 -7 5 0
2 3 9 0
-4 -3 7 0
9 -5 -7 0
9 8 -7 0
2 6 -4 0
7 -9 -6 0
1 -6 10 0
-8 4 -9 0
2 -7 10 0
-9 -6 4 0
-2 4 8 0
-8 -5 -1 0
-6 5 1 0
-2 4 8 0
-9 -7 3 0
-8 3 -6 0
-10 5 7 0
-1 3 -5 0
-1 -10 -8 0
8 9 -3 0
-9 10 2 0
9 2 -7 0
-8 2 4 0
7 10 5 0
-3 4 -6 0
-5 -8 -3 0
8 2 9 0
-8 2 -10 0
-7 9 10 0
-6 3 10 0
2 3 5 0
